0 7 4 5 8 6 12 13 11 18
7 0  3 10 9 14 5 14 17 17
4 3 0 5 9 10 21 8 27 12
5 10 5 0 14 9 10 9 23 16
8 9 9 14 0 7 8 7 20 19
6 14 10 9 7 0 13 5 25 13
12 5 21 10 8 13 0 23 21 18
13 14 8 9 7 5 23 0 18 12
11 17 27 23 20 25 21 18 0 16
18 17 12 16 19 13 18 12 16 0